NAME: Tnm64
COMMENT: Recalculated optimal tour for Tnm64, using concorde got a tour of length 770162.0
TYPE: TOUR
DIMENSION: 64
TOUR_SECTION
1
47
4
7
10
13
16
19
22
25
28
31
34
37
40
43
2
48
51
5
8
11
14
17
20
54
57
60
63
64
62
61
58
55
52
23
26
29
32
35
38
49
46
41
44
3
6
9
12
15
18
21
24
27
30
33
59
56
53
50
36
39
42
45
-1
EOF
